data;


param d:= 100;
param r:=5;
param p:=0.840000;
param M:=1000;
param U:=
         1         1       -1.286065e+00
         2         1        3.925768e-01
         3         1       -3.118423e-01
         4         1       -9.895581e-01
         5         1        2.858175e-01
         6         1       -1.837720e+00
         7         1        8.635361e-01
         8         1        6.518782e-01
         9         1       -2.818003e-01
        10         1        3.619403e-02
        11         1        2.968246e-01
        12         1       -6.075793e-01
        13         1        4.076698e-01
        14         1        7.467377e-01
        15         1        1.962250e-01
        16         1        1.131946e+00
        17         1        1.795404e+00
        18         1       -2.168519e+00
        19         1       -5.894138e-01
        20         1        4.455164e-01
        21         1       -1.252774e-02
        22         1        1.875359e-03
        23         1        1.595599e+00
        24         1        2.326026e-01
        25         1        6.490925e-01
        26         1       -8.680995e-01
        27         1        7.689725e-01
        28         1       -2.121401e-02
        29         1       -3.533483e-01
        30         1       -1.015760e+00
        31         1       -1.124353e+00
        32         1       -6.792091e-02
        33         1       -9.714797e-01
        34         1        1.171321e+00
        35         1       -1.255870e+00
        36         1        3.639146e-01
        37         1        7.699292e-01
        38         1       -1.408028e+00
        39         1       -1.117210e+00
        40         1        1.440267e+00
        41         1       -5.561730e-02
        42         1        6.047472e-01
        43         1       -7.625608e-01
        44         1        7.078219e-01
        45         1       -8.671917e-01
        46         1        8.486186e-02
        47         1        1.522828e+00
        48         1       -1.012493e+00
        49         1       -1.614100e+00
        50         1        2.091615e-01
        51         1       -7.606054e-02
        52         1        3.526817e-01
        53         1       -4.398114e-01
        54         1        1.519435e+00
        55         1       -5.805433e-02
        56         1       -3.102606e-01
        57         1        5.195846e-01
        58         1        1.678182e+00
        59         1       -1.085569e+00
        60         1       -1.462390e+00
        61         1       -1.649317e+00
        62         1        5.495755e-01
        63         1        6.194784e-01
        64         1        1.108143e+00
        65         1        5.383716e-01
        66         1        7.257674e-01
        67         1        1.439610e-01
        68         1        1.361882e+00
        69         1        1.405472e+00
        70         1       -1.629134e+00
        71         1        5.494141e-01
        72         1        8.493361e-01
        73         1       -1.355402e+00
        74         1       -2.131086e-01
        75         1        7.243067e-01
        76         1       -1.671101e-02
        77         1       -1.134259e+00
        78         1        2.658979e-01
        79         1       -8.172352e-01
        80         1        6.374725e-01
        81         1        9.270057e-01
        82         1       -9.584060e-01
        83         1        5.306850e-01
        84         1        2.890024e-02
        85         1       -4.878434e-01
        86         1        3.563949e-01
        87         1        2.807730e+00
        88         1       -5.296501e-02
        89         1        1.888882e-01
        90         1        1.506609e+00
        91         1        9.081097e-01
        92         1        1.060628e+00
        93         1        1.789453e+00
        94         1        2.656577e-01
        95         1       -1.658261e+00
        96         1        6.152944e-01
        97         1       -1.471994e+00
        98         1       -1.197323e+00
        99         1        1.018629e+00
       100         1       -1.360646e-01
         1         2       -1.695514e+00
         2         2       -4.321129e-01
         3         2        1.519789e+00
         4         2        2.102422e+00
         5         2       -7.794467e-01
         6         2        1.526453e-01
         7         2        1.153948e+00
         8         2       -1.319253e-01
         9         2       -1.543402e+00
        10         2       -5.204355e-01
        11         2       -3.291997e-01
        12         2       -8.305987e-01
        13         2       -4.277071e-01
        14         2        2.572592e+00
        15         2       -1.031813e+00
        16         2        5.302784e-01
        17         2        1.821485e+00
        18         2       -2.421753e+00
        19         2        1.680385e+00
        20         2        5.946730e-01
        21         2       -1.977998e-01
        22         2        7.796313e-01
        23         2        1.296468e+00
        24         2        1.501694e-01
        25         2       -7.810876e-01
        26         2       -1.907566e+00
        27         2       -1.150412e+00
        28         2       -1.032618e+00
        29         2        1.566794e+00
        30         2        1.370734e+00
        31         2       -6.299778e-01
        32         2       -1.128592e+00
        33         2       -1.712231e-01
        34         2        1.911137e+00
        35         2        9.803481e-02
        36         2       -7.011659e-02
        37         2        1.723786e+00
        38         2       -1.705452e+00
        39         2       -5.124575e-01
        40         2       -3.509169e-01
        41         2       -1.081167e+00
        42         2       -1.312618e+00
        43         2       -1.106528e+00
        44         2       -4.515906e-01
        45         2        5.677955e-01
        46         2        6.444795e-01
        47         2        1.231512e+00
        48         2       -6.893691e-01
        49         2        2.191776e+00
        50         2        5.532926e-01
        51         2        2.529495e-02
        52         2        1.623864e+00
        53         2       -6.994461e-02
        54         2        3.295887e-01
        55         2       -9.984730e-01
        56         2       -1.254314e+00
        57         2       -3.314680e-01
        58         2       -3.267965e-01
        59         2        1.554832e+00
        60         2       -2.418439e-01
        61         2        3.277005e-01
        62         2        1.486221e+00
        63         2       -4.283040e-01
        64         2       -2.518338e-01
        65         2        1.680790e+00
        66         2       -9.082007e-01
        67         2       -2.018058e+00
        68         2        1.994479e-01
        69         2       -1.312630e+00
        70         2        2.016779e-01
        71         2        5.976602e-01
        72         2       -1.449191e+00
        73         2       -3.267169e-01
        74         2        7.133632e-01
        75         2       -9.515221e-01
        76         2        8.758720e-01
        77         2       -4.098843e-01
        78         2        8.999111e-01
        79         2        4.685847e-01
        80         2       -1.203939e+00
        81         2       -8.241121e-01
        82         2       -2.101738e-01
        83         2        1.323135e+00
        84         2       -3.332294e-02
        85         2        2.860672e-01
        86         2        3.148845e-02
        87         2       -1.574643e+00
        88         2       -5.265187e-01
        89         2       -3.048646e+00
        90         2       -1.661395e-01
        91         2        7.391233e-01
        92         2        1.590913e-01
        93         2       -8.315144e-01
        94         2       -7.846302e-01
        95         2        1.010749e+00
        96         2       -5.291491e-01
        97         2        5.111447e-01
        98         2        5.656407e-01
        99         2        3.788121e-01
       100         2        5.337092e-01
         1         3        1.951359e+00
         2         3        3.111859e-01
         3         3       -5.675400e-01
         4         3       -5.030667e-01
         5         3       -5.973774e-01
         6         3       -6.859219e-02
         7         3       -1.141353e+00
         8         3        1.723101e+00
         9         3       -5.925151e-02
        10         3        9.934886e-01
        11         3       -3.522441e-01
        12         3        4.309122e-01
        13         3        9.131831e-01
        14         3        1.507876e+00
        15         3       -2.938533e-01
        16         3       -1.886824e-01
        17         3        2.583364e-01
        18         3       -1.115552e+00
        19         3        1.811577e+00
        20         3        8.306857e-01
        21         3       -4.752634e-01
        22         3       -1.192213e+00
        23         3        9.817861e-01
        24         3       -3.099971e-01
        25         3        5.372069e-01
        26         3        2.020614e-01
        27         3        3.637675e-01
        28         3       -4.981332e-01
        29         3       -7.881035e-02
        30         3       -1.673688e-04
        31         3       -1.159860e-01
        32         3       -3.208941e-01
        33         3        1.752051e-01
        34         3        1.024038e+00
        35         3        1.873806e+00
        36         3       -6.271106e-01
        37         3        1.518975e+00
        38         3        4.408649e-01
        39         3       -2.271109e+00
        40         3        3.585630e+00
        41         3       -7.849546e-01
        42         3        6.272278e-01
        43         3        5.243592e-01
        44         3       -1.070140e-01
        45         3       -4.800172e-01
        46         3       -1.153071e+00
        47         3        1.582669e-01
        48         3       -1.257361e+00
        49         3       -6.071783e-01
        50         3        1.778790e+00
        51         3       -7.586048e-02
        52         3        1.107844e-01
        53         3       -4.054998e-01
        54         3        2.570729e-02
        55         3       -3.790730e-02
        56         3        6.761440e-01
        57         3        2.140124e-01
        58         3        9.456440e-01
        59         3        1.341075e+00
        60         3       -8.999325e-02
        61         3       -1.959159e+00
        62         3       -2.425539e-01
        63         3        1.444584e-01
        64         3        1.420283e+00
        65         3        2.386054e-01
        66         3       -1.119899e+00
        67         3       -4.693457e-01
        68         3       -1.306256e+00
        69         3       -1.993517e+00
        70         3        1.089709e+00
        71         3       -4.262381e-01
        72         3        1.040576e+00
        73         3        1.969829e-01
        74         3        1.080333e-01
        75         3        1.857618e-01
        76         3       -5.925955e-01
        77         3       -2.947104e-01
        78         3        2.279936e-01
        79         3       -1.917634e+00
        80         3        7.388922e-01
        81         3        5.430915e-01
        82         3        1.164390e+00
        83         3        2.222442e-01
        84         3        1.281026e+00
        85         3        1.300916e+00
        86         3        1.283896e+00
        87         3       -1.125613e+00
        88         3        2.627644e-01
        89         3       -7.223722e-01
        90         3        2.290901e-01
        91         3       -9.878599e-01
        92         3        2.188980e-01
        93         3        1.089337e+00
        94         3       -1.206791e+00
        95         3       -9.010889e-01
        96         3        7.307875e-01
        97         3       -2.134378e+00
        98         3       -8.021556e-01
        99         3       -1.724106e+00
       100         3       -5.778659e-01
         1         4        1.217108e+00
         2         4       -5.282692e-01
         3         4        1.649675e-01
         4         4        3.168018e-01
         5         4       -7.266786e-02
         6         4        2.739582e-01
         7         4       -1.761432e+00
         8         4        3.056902e-01
         9         4       -1.968392e+00
        10         4        4.144338e-01
        11         4       -1.235594e+00
        12         4        1.321651e+00
        13         4        8.347702e-01
        14         4       -1.386595e-01
        15         4        2.087710e-01
        16         4        6.656266e-01
        17         4       -4.739602e-01
        18         4        3.059002e+00
        19         4        7.346936e-01
        20         4       -1.375246e+00
        21         4        3.920305e-01
        22         4       -2.155982e+00
        23         4        7.791676e-01
        24         4        1.143136e+00
        25         4       -1.896338e+00
        26         4        1.413157e+00
        27         4       -9.675607e-01
        28         4        7.953132e-01
        29         4       -9.724297e-01
        30         4       -3.988253e-01
        31         4       -1.035364e+00
        32         4       -1.469946e+00
        33         4        7.297871e-01
        34         4       -1.642232e+00
        35         4        1.557665e+00
        36         4        1.504856e+00
        37         4        9.020096e-01
        38         4        2.050357e+00
        39         4       -1.212102e-01
        40         4       -5.460807e-01
        41         4       -1.422143e+00
        42         4        2.798078e-01
        43         4       -8.714053e-01
        44         4        4.646526e-01
        45         4        6.410175e-01
        46         4       -1.070152e+00
        47         4        3.764922e-01
        48         4       -6.294943e-01
        49         4       -1.117660e+00
        50         4       -1.008529e+00
        51         4        6.981330e-01
        52         4        6.677811e-01
        53         4        8.153703e-01
        54         4       -4.916856e-01
        55         4       -8.629280e-01
        56         4       -1.196105e+00
        57         4       -1.851088e+00
        58         4       -7.953334e-01
        59         4       -1.477179e-02
        60         4       -9.473307e-01
        61         4        1.655406e+00
        62         4       -7.369929e-01
        63         4        8.664609e-01
        64         4       -1.261451e+00
        65         4        1.968849e-01
        66         4        9.537926e-01
        67         4        5.089924e-02
        68         4        4.885111e-01
        69         4       -6.934921e-01
        70         4        6.564775e-02
        71         4        4.240252e-02
        72         4       -1.888989e-01
        73         4        1.012581e+00
        74         4       -2.039316e-01
        75         4        1.237969e+00
        76         4        4.139944e-01
        77         4       -6.744793e-01
        78         4        3.447375e-01
        79         4       -1.478109e+00
        80         4        1.539764e-01
        81         4       -7.620466e-01
        82         4       -1.735795e+00
        83         4       -2.938588e-01
        84         4        5.746242e-02
        85         4       -6.067061e-01
        86         4        9.045502e-01
        87         4        2.764632e-02
        88         4       -6.358944e-02
        89         4       -1.534178e+00
        90         4       -6.774364e-01
        91         4        2.057718e-02
        92         4        4.284719e-02
        93         4       -4.135462e-02
        94         4        4.996788e-01
        95         4        8.129383e-01
        96         4       -1.633633e-01
        97         4       -5.844421e-01
        98         4        1.899103e+00
        99         4       -4.618375e-01
       100         4        6.190283e-01
         1         5       -2.435451e+00
         2         5        8.726170e-01
         3         5        7.102550e-02
         4         5        9.125741e-01
         5         5        1.376538e-02
         6         5        1.564050e+00
         7         5       -3.089659e-01
         8         5       -1.064827e-01
         9         5        1.814080e-01
        10         5        5.626027e-01
        11         5        2.335790e-01
        12         5       -1.516892e-01
        13         5        1.116602e+00
        14         5        1.303868e-01
        15         5        1.454582e+00
        16         5        8.195349e-01
        17         5        3.344324e-01
        18         5        8.586326e-01
        19         5       -8.458470e-02
        20         5       -5.896216e-01
        21         5        8.128490e-01
        22         5        2.485158e-01
        23         5       -6.802611e-01
        24         5       -1.292816e+00
        25         5       -1.501357e+00
        26         5        5.986888e-01
        27         5       -4.686044e-01
        28         5        7.224032e-01
        29         5       -1.612399e-01
        30         5       -4.680516e-01
        31         5        1.907551e-01
        32         5       -1.567542e+00
        33         5       -1.315257e+00
        34         5       -4.569657e-01
        35         5       -6.314410e-01
        36         5        5.564652e-01
        37         5       -7.494243e-02
        38         5        8.171208e-01
        39         5        1.984527e-01
        40         5       -7.869366e-01
        41         5       -1.033264e-01
        42         5       -1.077967e+00
        43         5       -5.812434e-01
        44         5        3.684574e-01
        45         5       -1.055473e+00
        46         5        1.420560e+00
        47         5       -3.222742e-01
        48         5       -1.408425e+00
        49         5       -9.126382e-01
        50         5        1.495885e+00
        51         5       -3.527372e-01
        52         5       -2.822316e-01
        53         5       -1.458860e+00
        54         5       -7.568774e-01
        55         5        2.871959e-01
        56         5       -1.219035e+00
        57         5        1.108143e+00
        58         5       -2.495979e+00
        59         5       -3.194134e-01
        60         5        1.122546e+00
        61         5        3.326161e-01
        62         5        3.763467e-01
        63         5        1.421830e+00
        64         5        5.413839e-01
        65         5       -7.463761e-01
        66         5       -7.555241e-01
        67         5        1.252779e-01
        68         5        1.269365e+00
        69         5        1.469830e+00
        70         5        3.510202e+00
        71         5        1.138616e+00
        72         5       -2.468019e+00
        73         5       -1.277680e+00
        74         5        3.295825e-01
        75         5       -5.686141e-01
        76         5        2.345605e-01
        77         5        2.730437e-01
        78         5       -9.604412e-03
        79         5        3.559635e-01
        80         5       -3.918411e-01
        81         5       -6.181397e-01
        82         5       -7.956669e-01
        83         5       -8.119597e-01
        84         5        2.953538e-02
        85         5        5.085191e-01
        86         5        1.412018e-01
        87         5        1.909894e+00
        88         5       -6.190844e-01
        89         5        5.738049e-01
        90         5        2.041510e+00
        91         5        1.707364e-01
        92         5       -1.489998e+00
        93         5       -9.490605e-01
        94         5       -4.842298e-01
        95         5       -6.316960e-01
        96         5        2.982071e+00
        97         5       -1.736511e+00
        98         5       -1.457064e+00
        99         5       -5.360001e-01
       100         5        2.306593e-01
;

param theta:=
    1        9.134837e-01
    2        4.805091e-01
    3        6.018653e-01
    4       -1.914978e+00
    5       -1.488252e+00
;
param X_true:=
    1        4.787748e-01
    2        5.122037e-02
    3       -3.177861e-01
    4       -2.161299e+00
    5       -3.543113e-01
    6       -4.498986e+00
    7        4.489290e+00
    8        1.142247e+00
    9        2.464746e+00
   10       -1.249991e+00
   11        1.919469e+00
   12       -2.999953e+00
   13       -2.543855e+00
   14        2.897306e+00
   15       -3.057984e+00
   16       -1.319078e+00
   17        3.080700e+00
   18       -1.095178e+01
   19        7.830744e-02
   20        4.703750e+00
   21       -2.352987e+00
   22        3.417586e+00
   23        2.191733e+00
   24       -1.669853e-01
   25        6.406784e+00
   26       -5.185148e+00
   27        2.918858e+00
   28       -3.413495e+00
   29        2.484794e+00
   30        1.190989e+00
   31        2.992110e-01
   32        4.350332e+00
   33       -3.043474e-01
   34        6.429552e+00
   35       -2.015482e+00
   36       -3.788623e+00
   37        8.300365e-01
   38       -6.982824e+00
   39       -2.696927e+00
   40        5.522000e+00
   41        1.834396e+00
   42        1.367669e+00
   43        1.621068e+00
   44       -1.072974e+00
   45       -4.649646e-01
   46       -3.716291e-01
   47        1.836738e+00
   48        1.288652e+00
   49        2.711804e+00
   50        1.232576e+00
   51       -9.149307e-01
   52        3.103736e-01
   53       -6.969052e-02
   54        3.629813e+00
   55        6.694459e-01
   56        3.625566e+00
   57        2.339763e+00
   58        7.182804e+00
   59        1.066263e+00
   60       -1.362755e+00
   61       -6.193393e+00
   62        1.921413e+00
   63       -3.328270e+00
   64        3.356016e+00
   65        2.176802e+00
   66       -1.149532e+00
   67       -1.404588e+00
   68       -2.270919e+00
   69       -1.406139e+00
   70       -6.085199e+00
   71       -1.243223e+00
   72        4.740562e+00
   73       -1.314132e+00
   74        1.131504e-01
   75       -1.208211e+00
   76       -1.092939e+00
   77       -5.252013e-01
   78        1.666595e-01
   79        6.252536e-01
   80        7.368276e-01
   81        3.156929e+00
   82        4.232489e+00
   83        3.025445e+00
   84        6.273979e-01
   85        8.798210e-01
   86       -8.289133e-01
   87       -1.764627e+00
   88        8.998948e-01
   89        3.568247e-01
   90       -3.066916e-01
   91        2.966368e-01
   92        3.312498e+00
   93        3.382354e+00
   94       -1.096891e+00
   95       -2.188090e+00
   96       -3.377599e+00
   97        1.319918e+00
   98       -2.772991e+00
   99        1.756955e+00
  100       -1.744343e+00
;
param X:=
    1       -2.147983e+00
    2       -8.677860e-01
    3        1.317782e+00
    4        4.776868e-01
    5       -3.174254e-01
    6       -1.127670e+00
    7       -9.832980e-01
    8        2.164068e-01
    9        2.464746e+00
   10       -2.082227e+00
   11        1.919469e+00
   12       -2.999953e+00
   13       -2.543855e+00
   14       -2.530974e+00
   15        8.375571e-02
   16        2.819911e-01
   17        9.943120e-01
   18        5.916808e-02
   19       -7.675490e-01
   20       -4.786650e-02
   21        7.118707e-01
   22       -1.128463e+00
   23        3.258981e-01
   24       -1.669853e-01
   25        1.554594e+00
   26        4.426087e-01
   27        3.049506e+00
   28       -2.944088e-01
   29       -6.540040e-01
   30        2.321565e-01
   31        5.799229e-01
   32       -4.061749e-01
   33        3.584277e-01
   34        1.444833e+00
   35        8.616153e-01
   36        6.115143e-01
   37        1.693771e+00
   38        7.930412e-01
   39       -9.170529e-01
   40        1.503141e+00
   41       -2.941983e-01
   42       -1.647622e-01
   43        1.621068e+00
   44        1.859683e+00
   45        5.096763e-01
   46       -9.748559e-02
   47       -1.125684e+00
   48        3.400061e-01
   49       -1.086985e-01
   50       -3.143218e-01
   51       -2.897380e-01
   52        3.103736e-01
   53       -1.739810e+00
   54        2.620773e-01
   55        2.728028e-01
   56        5.464690e-01
   57       -1.228539e+00
   58        2.152593e+00
   59        1.420128e+00
   60        9.109921e-01
   61       -6.193393e+00
   62       -4.695733e-01
   63       -5.530500e-01
   64       -8.628841e-01
   65        3.735890e-01
   66        2.357181e+00
   67        5.063734e-01
   68       -2.270919e+00
   69       -6.989028e-01
   70        5.300157e-01
   71        9.338029e-02
   72       -1.343323e-01
   73       -1.314132e+00
   74        4.958424e-01
   75       -4.838262e-01
   76       -9.751690e-01
   77        8.942963e-01
   78        1.282205e+00
   79        6.252536e-01
   80       -5.962490e-01
   81        3.156929e+00
   82       -8.075206e-02
   83        9.539788e-01
   84        3.840429e-01
   85       -1.346954e+00
   86        4.336467e-01
   87       -1.764627e+00
   88        8.998948e-01
   89        8.863555e-01
   90       -3.066916e-01
   91       -2.790957e-01
   92        1.187935e+00
   93       -6.808696e-02
   94        3.565721e-01
   95        2.469614e-01
   96        8.274655e-01
   97       -2.792467e-01
   98        8.521964e-02
   99        1.856962e+00
  100       -6.844710e-01
;
param outliervec:=
    1    1
    2    1
    3    1
    4    1
    5    1
    6    1
    7    1
    8    1
    9    0
   10    1
   11    0
   12    0
   13    0
   14    1
   15    1
   16    1
   17    1
   18    1
   19    1
   20    1
   21    1
   22    1
   23    1
   24    0
   25    1
   26    1
   27    1
   28    1
   29    1
   30    1
   31    1
   32    1
   33    1
   34    1
   35    1
   36    1
   37    1
   38    1
   39    1
   40    1
   41    1
   42    1
   43    0
   44    1
   45    1
   46    1
   47    1
   48    1
   49    1
   50    1
   51    1
   52    0
   53    1
   54    1
   55    1
   56    1
   57    1
   58    1
   59    1
   60    1
   61    0
   62    1
   63    1
   64    1
   65    1
   66    1
   67    1
   68    0
   69    1
   70    1
   71    1
   72    1
   73    0
   74    1
   75    1
   76    1
   77    1
   78    1
   79    0
   80    1
   81    0
   82    1
   83    1
   84    1
   85    1
   86    1
   87    0
   88    0
   89    1
   90    0
   91    1
   92    1
   93    1
   94    1
   95    1
   96    1
   97    1
   98    1
   99    1
  100    1
;